p cnf 153 267               
-1 32 0
-7 32 0
1 7 -32 0
32 66 0
-2 33 0
-8 33 0
2 8 -33 0
33 38 0
32 38 0
-33 -32 -38 0
38 -48 0
-32 39 0
-33 39 0
32 33 -39 0
39 40 0
-3 34 0
-9 34 0
3 9 -34 0
34 40 0
-39 -34 -40 0
40 -48 0
-34 41 0
-39 41 0
34 39 -41 0
41 42 0
-4 35 0
-10 35 0
4 10 -35 0
35 42 0
-41 -35 -42 0
42 -48 0
-35 43 0
-41 43 0
35 41 -43 0
43 44 0
-5 36 0
-11 36 0
5 11 -36 0
36 44 0
-43 -36 -44 0
44 -48 0
-36 45 0
-43 45 0
36 43 -45 0
45 46 0
-6 37 0
-12 37 0
6 12 -37 0
37 46 0
-45 -37 -46 0
46 -48 0
-37 47 0
-45 47 0
37 45 -47 0
47 -48 0
-38 -40 -42 -44 -46 -47 48 0
-48 -32 60 0
48 -13 60 0
-32 -13 60 0
-60 66 0
33 67 0
-48 -33 61 0
48 -14 61 0
-33 -14 61 0
-61 67 0
34 68 0
-48 -34 62 0
48 -15 62 0
-34 -15 62 0
-62 68 0
35 69 0
-48 -35 63 0
48 -16 63 0
-35 -16 63 0
-63 69 0
36 70 0
-48 -36 64 0
48 -17 64 0
-36 -17 64 0
-64 70 0
37 71 0
-48 -37 65 0
48 -18 65 0
-37 -18 65 0
-65 71 0
-66 -67 -68 -69 -70 -71 72 0
-72 -73 0
-12 28 0
-11 27 0
-10 26 0
-9 25 0
-7 24 0
-8 24 0
7 8 -24 0
-24 25 0
9 24 -25 0
-25 26 0
10 25 -26 0
-26 27 0
11 26 -27 0
-27 28 0
12 27 -28 0
-6 23 0
-5 22 0
-4 21 0
-3 20 0
-1 19 0
-2 19 0
1 2 -19 0
-19 20 0
3 19 -20 0
-20 21 0
4 20 -21 0
-21 22 0
5 21 -22 0
-22 23 0
6 22 -23 0
-28 -23 -29 0
29 -31 0
23 28 -30 0
30 -31 0
31 -73 0
48 -73 0
-14 -13 -49 0
49 -59 0
-13 50 0
-14 50 0
13 14 -50 0
-50 -15 -51 0
51 -59 0
-15 52 0
-50 52 0
15 50 -52 0
-52 -16 -53 0
53 -59 0
-16 54 0
-52 54 0
16 52 -54 0
-54 -17 -55 0
55 -59 0
-17 56 0
-54 56 0
17 54 -56 0
-56 -18 -57 0
57 -59 0
18 56 -58 0
58 -59 0
59 -73 0
-1 7 -74 0
74 -96 0
-1 -7 75 0
1 7 75 0
-7 7 75 0
-2 8 -76 0
-75 76 -77 0
77 -96 0
-2 -8 78 0
2 8 78 0
-8 8 78 0
-75 -78 79 0
-3 9 -80 0
-79 80 -81 0
81 -96 0
-3 -9 82 0
3 9 82 0
-9 9 82 0
-79 -82 83 0
-4 10 -84 0
-83 84 -85 0
85 -96 0
-4 -10 86 0
4 10 86 0
-10 10 86 0
-83 -86 87 0
-5 11 -88 0
-87 88 -89 0
89 -96 0
-5 -11 90 0
5 11 90 0
-11 11 90 0
-87 -90 91 0
-6 12 -92 0
-91 92 -93 0
93 -96 0
96 -152 0
-13 14 -97 0
97 -107 0
-13 -14 98 0
13 14 98 0
-14 14 98 0
-1 2 -99 0
-98 99 -100 0
100 -107 0
-1 -2 101 0
1 2 101 0
-2 2 101 0
-98 -101 102 0
-7 8 -103 0
-102 103 -104 0
104 -107 0
107 -152 0
-14 15 -108 0
108 -118 0
-14 -15 109 0
14 15 109 0
-15 15 109 0
-2 3 -110 0
-109 110 -111 0
111 -118 0
-2 -3 112 0
2 3 112 0
-3 3 112 0
-109 -112 113 0
-8 9 -114 0
-113 114 -115 0
115 -118 0
118 -152 0
-15 16 -119 0
119 -129 0
-15 -16 120 0
15 16 120 0
-16 16 120 0
-3 4 -121 0
-120 121 -122 0
122 -129 0
-3 -4 123 0
3 4 123 0
-4 4 123 0
-120 -123 124 0
-9 10 -125 0
-124 125 -126 0
126 -129 0
129 -152 0
-16 17 -130 0
130 -140 0
-16 -17 131 0
16 17 131 0
-17 17 131 0
-4 5 -132 0
-131 132 -133 0
133 -140 0
-4 -5 134 0
4 5 134 0
-5 5 134 0
-131 -134 135 0
-10 11 -136 0
-135 136 -137 0
137 -140 0
140 -152 0
-17 18 -141 0
141 -151 0
-17 -18 142 0
17 18 142 0
-18 18 142 0
-5 6 -143 0
-142 143 -144 0
144 -151 0
-5 -6 145 0
5 6 145 0
-6 6 145 0
-142 -145 146 0
-11 12 -147 0
-146 147 -148 0
148 -151 0
151 -152 0
73 0
152 0
